p cnf 22 10
a 1 0
e 2 3 4 5 0
a 6 0
e 7 0
a 8 9 10 11 0
e 12 13 0
a 14 15 16 17 0
e 18 19 0
a 20 0
e 21 22 0
21 1 -2 0
-8 -5 4 10 -7 0
13 -10 -12 4 16 0
11 20 0
-12 -5 15 -19 -21 0
-7 14 0
-6 -17 14 1 -12 0
-3 -19 -10 15 22 0
12 4 19 -14 -20 0
13 7 8 6 0
